words_hard_train/6108.qaiger
aag 97 16 0 1 81
2
4
8
12
16
20
28
32
40
46
54
70
86
102
118
120
194
6 3 5
10 6 9
14 10 13
18 14 17
22 19 20
24 18 21
26 23 25
30 26 28
34 25 32
36 24 33
38 35 37
42 39 41
44 30 43
48 46 2
50 2 4
52 51 7
56 53 55
58 52 54
60 57 59
62 48 60
64 63 59
66 7 8
68 67 11
72 69 71
74 68 70
76 73 75
78 65 76
80 79 75
82 11 12
84 83 15
88 85 87
90 84 86
92 89 91
94 81 92
96 95 91
98 15 16
100 99 19
104 101 103
106 100 102
108 105 107
110 97 108
112 111 107
114 44 113
116 38 40
122 118 120
124 119 121
126 123 125
128 126 36
130 127 37
132 129 131
134 117 133
136 27 29
138 112 136
140 135 139
142 115 141
144 112 31
146 145 137
148 116 146
150 143 149
152 47 3
154 153 60
156 154 49
158 64 77
160 159 79
162 157 161
164 80 93
166 165 95
168 163 166
170 96 109
172 171 111
174 169 172
176 167 161
178 152 61
180 179 63
182 176 181
184 183 173
186 175 185
188 147 42
190 132 189
192 187 191
194 150 192
i0 1 x1[0]
i1 1 x1[1]
i2 1 x1[2]
i3 1 x1[3]
i4 1 x1[4]
i5 1 x1[5]
i6 2 y2[5]
i7 1 x1[6]
i8 2 y2[6]
i9 2 y2[0]
i10 2 y2[1]
i11 2 y2[2]
i12 2 y2[3]
i13 2 y2[4]
i14 2 y2[7]
i15 1 x1[7]
o0 bv[0]
c
simplified
  >=
    subtract
      subtract
        2 y2
        1 x1
      187
    abs
      -154
