words_hard_train/6108.qaiger.qdimacs
p cnf 97 244
a 1 2 4 6 8 10 16 60 0
e 3 5 7 9 11 12 13 14 15 17 18 19 20 21 22 23 24 25 26 27 28 29 30 31 32 33 34 35 36 37 38 39 40 41 42 43 44 45 46 47 48 49 50 51 52 53 54 55 56 57 58 59 61 62 63 64 65 66 67 68 69 70 71 72 73 74 75 76 77 78 79 80 81 82 83 84 85 86 87 88 89 90 91 92 93 94 95 96 97 0
1 2 3 0
-1 -3 0
-2 -3 0
-3 4 5 0
3 -5 0
-4 -5 0
-5 6 7 0
5 -7 0
-6 -7 0
-7 8 9 0
7 -9 0
-8 -9 0
9 -10 11 0
-9 -11 0
10 -11 0
-9 10 12 0
9 -12 0
-10 -12 0
11 12 13 0
-11 -13 0
-12 -13 0
-13 -14 15 0
13 -15 0
14 -15 0
12 -16 17 0
-12 -17 0
16 -17 0
-12 16 18 0
12 -18 0
-16 -18 0
17 18 19 0
-17 -19 0
-18 -19 0
19 20 21 0
-19 -21 0
-20 -21 0
-15 21 22 0
15 -22 0
-21 -22 0
-23 -1 24 0
23 -24 0
1 -24 0
-1 -2 25 0
1 -25 0
2 -25 0
25 3 26 0
-25 -26 0
-3 -26 0
26 27 28 0
-26 -28 0
-27 -28 0
-26 -27 29 0
26 -29 0
27 -29 0
28 29 30 0
-28 -30 0
-29 -30 0
-24 -30 31 0
24 -31 0
30 -31 0
31 29 32 0
-31 -32 0
-29 -32 0
3 -4 33 0
-3 -33 0
4 -33 0
33 5 34 0
-33 -34 0
-5 -34 0
34 35 36 0
-34 -36 0
-35 -36 0
-34 -35 37 0
34 -37 0
35 -37 0
36 37 38 0
-36 -38 0
-37 -38 0
32 -38 39 0
-32 -39 0
38 -39 0
39 37 40 0
-39 -40 0
-37 -40 0
5 -6 41 0
-5 -41 0
6 -41 0
41 7 42 0
-41 -42 0
-7 -42 0
42 43 44 0
-42 -44 0
-43 -44 0
-42 -43 45 0
42 -45 0
43 -45 0
44 45 46 0
-44 -46 0
-45 -46 0
40 -46 47 0
-40 -47 0
46 -47 0
47 45 48 0
-47 -48 0
-45 -48 0
7 -8 49 0
-7 -49 0
8 -49 0
49 9 50 0
-49 -50 0
-9 -50 0
50 51 52 0
-50 -52 0
-51 -52 0
-50 -51 53 0
50 -53 0
51 -53 0
52 53 54 0
-52 -54 0
-53 -54 0
48 -54 55 0
-48 -55 0
54 -55 0
55 53 56 0
-55 -56 0
-53 -56 0
-22 56 57 0
22 -57 0
-56 -57 0
-19 -20 58 0
19 -58 0
20 -58 0
-59 -60 61 0
59 -61 0
60 -61 0
59 60 62 0
-59 -62 0
-60 -62 0
61 62 63 0
-61 -63 0
-62 -63 0
-63 -18 64 0
63 -64 0
18 -64 0
63 18 65 0
-63 -65 0
-18 -65 0
64 65 66 0
-64 -66 0
-65 -66 0
58 66 67 0
-58 -67 0
-66 -67 0
13 14 68 0
-13 -68 0
-14 -68 0
-56 -68 69 0
56 -69 0
68 -69 0
67 69 70 0
-67 -70 0
-69 -70 0
57 70 71 0
-57 -71 0
-70 -71 0
-56 15 72 0
56 -72 0
-15 -72 0
72 68 73 0
-72 -73 0
-68 -73 0
-58 -73 74 0
58 -74 0
73 -74 0
71 74 75 0
-71 -75 0
-74 -75 0
23 1 76 0
-23 -76 0
-1 -76 0
76 -30 77 0
-76 -77 0
30 -77 0
-77 24 78 0
77 -78 0
-24 -78 0
-32 38 79 0
32 -79 0
-38 -79 0
79 39 80 0
-79 -80 0
-39 -80 0
78 80 81 0
-78 -81 0
-80 -81 0
-40 46 82 0
40 -82 0
-46 -82 0
82 47 83 0
-82 -83 0
-47 -83 0
81 -83 84 0
-81 -84 0
83 -84 0
-48 54 85 0
48 -85 0
-54 -85 0
85 55 86 0
-85 -86 0
-55 -86 0
84 -86 87 0
-84 -87 0
86 -87 0
83 80 88 0
-83 -88 0
-80 -88 0
-76 30 89 0
76 -89 0
-30 -89 0
89 31 90 0
-89 -90 0
-31 -90 0
-88 90 91 0
88 -91 0
-90 -91 0
91 86 92 0
-91 -92 0
-86 -92 0
87 92 93 0
-87 -93 0
-92 -93 0
73 -21 94 0
-73 -94 0
21 -94 0
-66 94 95 0
66 -95 0
-94 -95 0
93 95 96 0
-93 -96 0
-95 -96 0
-75 -96 97 0
75 -97 0
96 -97 0
97 0
